************************************************************************
file with basedata            : md360_.bas
initial value random generator: 1732777653
************************************************************************
projects                      :  1
jobs (incl. supersource/sink ):  22
horizon                       :  166
RESOURCES
  - renewable                 :  2   R
  - nonrenewable              :  2   N
  - doubly constrained        :  0   D
************************************************************************
PROJECT INFORMATION:
pronr.  #jobs rel.date duedate tardcost  MPM-Time
    1     20      0       30       15       30
************************************************************************
PRECEDENCE RELATIONS:
jobnr.    #modes  #successors   successors
   1        1          3           2   3   4
   2        3          3           7  10  16
   3        3          1          11
   4        3          3           5  12  21
   5        3          3           6   7   8
   6        3          3           9  11  13
   7        3          2          15  20
   8        3          3          13  14  16
   9        3          2          14  15
  10        3          3          17  19  21
  11        3          3          14  18  20
  12        3          1          16
  13        3          2          15  17
  14        3          1          19
  15        3          1          18
  16        3          1          18
  17        3          1          20
  18        3          1          19
  19        3          1          22
  20        3          1          22
  21        3          1          22
  22        1          0        
************************************************************************
REQUESTS/DURATIONS:
jobnr. mode duration  R 1  R 2  N 1  N 2
------------------------------------------------------------------------
  1      1     0       0    0    0    0
  2      1     6       4    6    7    9
         2     8       2    4    3    6
         3     8       3    5    2    6
  3      1     2       4    5    9    9
         2     2       4    6   10    6
         3     6       3    3    9    5
  4      1     1      10    6    9    6
         2     6       6    5    8    5
         3     9       6    4    8    1
  5      1     5       6    3    8    4
         2     7       6    3    7    2
         3    10       4    2    4    1
  6      1     6       9    9    6    7
         2     6       8    5    6    8
         3     7       8    3    4    7
  7      1     3       8    2    3    7
         2     6       7    2    2    7
         3     8       7    2    2    6
  8      1     4       4    8    9    9
         2     4       4    5    9   10
         3     7       3    2    7    8
  9      1     6      10    9    8   10
         2     9       5    9    4    6
         3    10       4    9    2    3
 10      1     4       7    5    7    4
         2     5       5    5    7    3
         3    10       5    5    5    3
 11      1     7       7    7    5    6
         2     7       7    6    6    7
         3     9       5    1    4    4
 12      1     2       7    7    6   10
         2     3       7    6    6    8
         3     9       6    5    6    7
 13      1     2       9    9    8    8
         2     6       7    7    6    8
         3     6       7    6    7    8
 14      1     1       7    6    8    6
         2     5       4    6    7    6
         3    10       2    5    6    5
 15      1     2       1    4    2    4
         2     4       1    4    2    3
         3     5       1    3    1    3
 16      1     1       8    5    9    4
         2     3       7    4    6    2
         3     9       4    2    2    1
 17      1     5      10    8    9    3
         2     7       8    8    9    2
         3     7       8    6    8    3
 18      1     4       8    6    6    8
         2     6       8    5    6    5
         3     7       7    2    5    4
 19      1     6       9    7    7    9
         2     8       5    7    5    5
         3    10       5    7    5    4
 20      1     3       5    8   10    7
         2     7       5    4   10    6
         3     9       5    4   10    3
 21      1     2       3    4    8    3
         2     2       5    6    9    2
         3    10       3    4    6    1
 22      1     0       0    0    0    0
************************************************************************
RESOURCEAVAILABILITIES:
  R 1  R 2  N 1  N 2
   28   25  113   96
************************************************************************
MAXIMAL LAGS:
from  to  type  delay
    1   12   ES      0
    1    2   ES      0
    2   12   ES      0
    1    3   ES      0
    3   12   ES      0
    1    4   ES      0
    4   12   ES      0
    1    5   ES      0
    5   12   ES      0
    1    6   ES      0
    6   12   ES      0
    1    7   ES      0
    7   12   ES      0
    1    8   ES      0
    8   12   ES      0
    1    9   ES      0
    9   12   ES      0
    1   10   ES      0
   10   12   ES      0
    1   11   ES      0
   11   12   ES      0
    1   12   ES      0
    2    7   SS      5
    2    7   SE     11
    2    7   ES     11
    2    7   EE     -1
    2   10   SS     -8
    2   10   SE     -5
    2   10   ES     -5
    2   10   EE     10
    2   16   SS     -8
    2   16   SE      6
    2   16   ES      2
    2   16   EE    -12
    3   11   SS     -4
    3   11   SE      6
    3   11   ES      8
    3   11   EE     -6
    4    5   SS     12
    4    5   SE      3
    4    5   ES      6
    4    5   EE     -2
    4   21   SS      4
    4   21   SE     -7
    4   21   ES      6
    4   21   EE     -9
    5    6   SS     -2
    5    6   SE      5
    5    6   ES      8
    5    6   EE     -1
    5    7   SS     -2
    5    7   SE     -9
    5    7   ES    -10
    5    7   EE      1
    5    8   SS     -6
    5    8   SE      7
    5    8   ES      8
    5    8   EE      2
    6    9   SS    -10
    6    9   SE     -3
    6    9   ES      7
    6    9   EE     -7
    6   11   SS    -12
    6   11   SE      2
    6   11   ES     -2
    6   11   EE      2
    6   13   SS     -3
    6   13   SE     10
    6   13   ES     -9
    6   13   EE     -3
    7   15   SS     -7
    7   15   SE     -3
    7   15   ES      5
    7   15   EE      2
    7   20   SS     -5
    7   20   SE      6
    7   20   ES      1
    7   20   EE     -7
    8   13   SS      0
    8   13   SE     -8
    8   13   ES     -1
    8   13   EE      7
    8   14   SS    -10
    8   14   SE      4
    8   14   ES      5
    8   14   EE     -5
    8   16   SS     10
    8   16   SE    -10
    8   16   ES     -7
    8   16   EE     -3
    9   14   SS      8
    9   14   SE      6
    9   14   ES      3
    9   14   EE     11
    9   15   SS      2
    9   15   SE     -5
    9   15   ES     12
    9   15   EE      8
   10   17   SS      1
   10   17   SE     10
   10   17   ES      2
   10   17   EE      3
   10   19   SS     -7
   10   19   SE     12
   10   19   ES     -4
   10   19   EE     -3
   10   21   SS     -6
   10   21   SE      8
   10   21   ES     -3
   10   21   EE     -6
   11   14   SS      8
   11   14   SE     -2
   11   14   ES     -3
   11   14   EE      7
   11   18   SS      2
   11   18   SE      4
   11   18   ES      3
   11   18   EE     -7
   11   20   SS      7
   11   20   SE      0
   11   20   ES     -1
   11   20   EE      3
   12   16   SS     -9
   12   16   SE     -2
   16   12   SE      0
   12   16   ES      0
   12   16   EE     12
   13   15   SS     10
   13   15   SE     -3
   13   15   ES     -5
   13   15   EE      4
   13   17   SS      9
   13   17   SE      8
   13   17   ES    -11
   13   17   EE     -7
   14   19   SS      7
   14   19   SE      6
   14   19   ES    -11
   14   19   EE     12
   15   18   SS     -5
   15   18   SE     -4
   15   18   ES      5
   15   18   EE      8
   16   18   SS    -12
   16   18   SE      8
   16   18   ES     -3
   16   18   EE     -8
   17   20   SS     -3
   17   20   SE      3
   17   20   ES      6
   17   20   EE      1
   18   19   SS    -11
   18   19   SE      8
   18   19   ES    -12
   18   19   EE     11
   19   22   SS    -11
   19   22   SE      6
   19   22   ES     -3
   19   22   EE    -12
   20   22   SS      7
   20   22   SE    -10
   20   22   ES      1
   20   22   EE     10
   21   22   SS     -1
   21   22   SE      3
   21   22   ES     -5
   21   22   EE      3
************************************************************************
